(declare-const __VERIFIER_assert__cond___54 Int)
(declare-const __VERIFIER_assert__cond___23 Int)
(declare-const __VERIFIER_assert__cond___60 Int)
(declare-const |phi_main__j:719:1184:1497| Int)
(declare-const __VERIFIER_assert__cond___83 Int)
(declare-const |phi___VERIFIER_assert__cond___131:704:1199:1512| Int)
(declare-const |phi___VERIFIER_assert__cond___146:724:1179:1492| Int)
(declare-const |phi_main__j:754:1149:1462| Int)
(declare-const __VERIFIER_assert__cond___124 Int)
(declare-const |phi___VERIFIER_assert__cond___24:948:969:1282| Int)
(declare-const |phi___VERIFIER_assert__cond___119:751:1152:1465| Int)
(declare-const |phi___VERIFIER_assert__cond___90:818:1093:1406| Int)
(declare-const |phi___VERIFIER_assert__cond___125:710:1193:1506| Int)
(declare-const |__VERIFIER_assert__cond___134':630:758:1266:1579| Int)
(declare-const |phi___VERIFIER_assert__cond___137:733:1170:1483| Int)
(declare-const __VERIFIER_assert__cond___84 Int)
(declare-const __VERIFIER_assert__cond___56 Int)
(declare-const |phi___VERIFIER_assert__cond___143:727:1176:1489| Int)
(declare-const __VERIFIER_assert__cond___123 Int)
(declare-const |phi___VERIFIER_assert__cond___57:883:1031:1344| Int)
(declare-const |phi___VERIFIER_assert__cond___21:951:966:1279| Int)
(declare-const |phi___VERIFIER_assert__cond___123:712:1191:1504| Int)
(declare-const |phi___VERIFIER_assert__cond___120:750:1153:1466| Int)
(declare-const |phi___VERIFIER_assert__cond___117:753:1150:1463| Int)
(declare-const __VERIFIER_assert__cond___126 Int)
(declare-const __VERIFIER_assert__cond___127 Int)
(declare-const __VERIFIER_assert__cond___95 Int)
(declare-const __VERIFIER_assert__cond___120 Int)
(declare-const havoc Int)
(declare-const __VERIFIER_assert__cond___59 Int)
(declare-const |phi___VERIFIER_assert__cond___92:816:1095:1408| Int)
(declare-const |phi___VERIFIER_assert__cond___127:708:1195:1508| Int)
(declare-const __VERIFIER_assert__cond___91 Int)
(declare-const __VERIFIER_assert__cond___151 Int)
(declare-const __VERIFIER_assert__cond___49 Int)
(declare-const __VERIFIER_assert__cond___119 Int)
(declare-const |phi___VERIFIER_assert__cond___83:825:1086:1399| Int)
(declare-const __VERIFIER_assert__cond___131 Int)
(declare-const |phi___VERIFIER_assert__cond___16:956:961:1274| Int)
(declare-const __VERIFIER_assert__cond___121 Int)
(declare-const __VERIFIER_assert__cond___93 Int)
(declare-const |phi___VERIFIER_assert__cond___130:740:1163:1476| Int)
(declare-const |phi___VERIFIER_assert__cond___17:955:962:1275| Int)
(declare-const |phi___VERIFIER_assert__cond___134:736:1167:1480| Int)
(declare-const __VERIFIER_assert__cond___85 Int)
(declare-const |phi___VERIFIER_assert__cond___59:881:1033:1346| Int)
(declare-const |phi___VERIFIER_assert__cond___124:746:1157:1470| Int)
(declare-const |phi___VERIFIER_assert__cond___135:735:1168:1481| Int)
(declare-const |phi___VERIFIER_assert__cond___27:945:972:1285| Int)
(declare-const |phi___VERIFIER_assert__cond___117:718:1185:1498| Int)
(declare-const |phi___VERIFIER_assert__cond___132:703:1200:1513| Int)
(declare-const |phi___VERIFIER_assert__cond___52:888:1026:1339| Int)
(declare-const __VERIFIER_assert__cond___62 Int)
(declare-const __VERIFIER_assert__cond___52 Int)
(declare-const __VERIFIER_assert__cond___17 Int)
(declare-const __VERIFIER_assert__cond___58 Int)
(declare-const |phi___VERIFIER_assert__cond___127:743:1160:1473| Int)
(declare-const __VERIFIER_assert__cond___133 Int)
(declare-const |phi___VERIFIER_assert__cond___49:891:1023:1336| Int)
(declare-const |phi___VERIFIER_assert__cond___96:812:1099:1412| Int)
(declare-const |phi___VERIFIER_assert__cond___95:813:1098:1411| Int)
(declare-const |phi___VERIFIER_assert__cond___124:711:1192:1505| Int)
(declare-const |phi___VERIFIER_assert__cond___121:749:1154:1467| Int)
(declare-const |phi___VERIFIER_assert__cond___133:737:1166:1479| Int)
(declare-const __VERIFIER_assert__cond___122 Int)
(declare-const |phi___VERIFIER_assert__cond___147:723:1180:1493| Int)
(declare-const |phi___VERIFIER_assert__cond___89:819:1092:1405| Int)
(declare-const __VERIFIER_assert__cond___19 Int)
(declare-const |phi___VERIFIER_assert__cond___51:889:1025:1338| Int)
(declare-const |phi___VERIFIER_assert__cond___121:714:1189:1502| Int)
(declare-const |phi___VERIFIER_assert__cond___19:953:964:1277| Int)
(declare-const |phi___VERIFIER_assert__cond___139:731:1172:1485| Int)
(declare-const __VERIFIER_assert__cond___18 Int)
(declare-const |phi___VERIFIER_assert__cond___85:823:1088:1401| Int)
(declare-const |main__j':617:759:1267:1580| Int)
(declare-const |phi___VERIFIER_assert__cond___25:947:970:1283| Int)
(declare-const |phi___VERIFIER_assert__cond___23:949:968:1281| Int)
(declare-const __VERIFIER_assert__cond___24 Int)
(declare-const __VERIFIER_assert__cond___51 Int)
(declare-const __VERIFIER_assert__cond___21 Int)
(declare-const |phi___VERIFIER_assert__cond___53:887:1027:1340| Int)
(declare-const __VERIFIER_assert__cond___87 Int)
(declare-const |phi_main__j:826:1085:1398| Int)
(declare-const |phi___VERIFIER_assert__cond___93:815:1096:1409| Int)
(declare-const |K:639:756:1264:1577| Int)
(declare-const |phi___VERIFIER_assert__cond___62:878:1036:1349| Int)
(declare-const |phi___VERIFIER_assert__cond___28:944:973:1286| Int)
(declare-const __VERIFIER_assert__cond___61 Int)
(declare-const __VERIFIER_assert__cond___125 Int)
(declare-const |phi___VERIFIER_assert__cond___84:824:1087:1400| Int)
(declare-const |phi___VERIFIER_assert__cond___61:879:1035:1348| Int)
(declare-const |main__i':616:626:629:1271:1584| Int)
(declare-const __VERIFIER_assert__cond___92 Int)
(declare-const |__VERIFIER_assert__cond___151':631:757:1265:1578| Int)
(declare-const |phi_main__j:892:1022:1335| Int)
(declare-const __VERIFIER_assert__cond___20 Int)
(declare-const |phi___VERIFIER_assert__cond___56:884:1030:1343| Int)
(declare-const __VERIFIER_assert__cond___28 Int)
(declare-const |phi___VERIFIER_assert__cond___126:709:1194:1507| Int)
(declare-const |phi___VERIFIER_assert__cond___138:732:1171:1484| Int)
(declare-const __VERIFIER_assert__cond___118 Int)
(declare-const |phi___VERIFIER_assert__cond___122:713:1190:1503| Int)
(declare-const |phi___VERIFIER_assert__cond___131:739:1164:1477| Int)
(declare-const |phi___VERIFIER_assert__cond___145:725:1178:1491| Int)
(declare-const |phi___VERIFIER_assert__cond___87:821:1090:1403| Int)
(declare-const |phi___VERIFIER_assert__cond___125:745:1158:1471| Int)
(declare-const |phi___VERIFIER_assert__cond___136:734:1169:1482| Int)
(declare-const |phi___VERIFIER_assert__cond___54:886:1028:1341| Int)
(declare-const |phi___VERIFIER_assert__cond___128:707:1196:1509| Int)
(declare-const |phi___VERIFIER_assert__cond___88:820:1091:1404| Int)
(declare-const __VERIFIER_assert__cond___22 Int)
(declare-const __VERIFIER_assert__cond___26 Int)
(declare-const |phi___VERIFIER_assert__cond___144:726:1177:1490| Int)
(declare-const |K:623:624:627:1269:1582| Int)
(declare-const |phi___VERIFIER_assert__cond___132:738:1165:1478| Int)
(declare-const __VERIFIER_assert__cond___90 Int)
(declare-const |phi___VERIFIER_assert__cond___18:954:963:1276| Int)
(declare-const __VERIFIER_assert__cond___129 Int)
(declare-const |phi___VERIFIER_assert__cond___26:946:971:1284| Int)
(declare-const |phi___VERIFIER_assert__cond___130:705:1198:1511| Int)
(declare-const |phi___VERIFIER_assert__cond___120:715:1188:1501| Int)
(declare-const |phi___VERIFIER_assert__cond___129:706:1197:1510| Int)
(declare-const __VERIFIER_assert__cond___134 Int)
(declare-const |phi___VERIFIER_assert__cond___20:952:965:1278| Int)
(declare-const |phi___VERIFIER_assert__cond___150:720:1183:1496| Int)
(declare-const |phi___VERIFIER_assert__cond___148:722:1181:1494| Int)
(declare-const |phi___VERIFIER_assert__cond___140:730:1173:1486| Int)
(declare-const __VERIFIER_assert__cond___132 Int)
(declare-const |main__i':616:760:1268:1581| Int)
(declare-const __VERIFIER_assert__cond___94 Int)
(declare-const __VERIFIER_assert__cond___53 Int)
(declare-const |phi___VERIFIER_assert__cond___128:742:1161:1474| Int)
(declare-const __VERIFIER_assert__cond___27 Int)
(declare-const |phi___VERIFIER_assert__cond___22:950:967:1280| Int)
(declare-const |phi___VERIFIER_assert__cond___60:880:1034:1347| Int)
(declare-const __VERIFIER_assert__cond___117 Int)
(declare-const __VERIFIER_assert__cond___96 Int)
(declare-const |phi___VERIFIER_assert__cond___119:716:1187:1500| Int)
(declare-const |phi___VERIFIER_assert__cond___142:728:1175:1488| Int)
(declare-const |phi___VERIFIER_assert__cond___91:817:1094:1407| Int)
(declare-const |phi___VERIFIER_assert__cond___126:744:1159:1472| Int)
(declare-const __VERIFIER_assert__cond___25 Int)
(declare-const __VERIFIER_assert__cond___128 Int)
(declare-const |phi___VERIFIER_assert__cond___118:717:1186:1499| Int)
(declare-const |phi___VERIFIER_assert__cond___122:748:1155:1468| Int)
(declare-const |phi___VERIFIER_assert__cond___58:882:1032:1345| Int)
(declare-const |phi___VERIFIER_assert__cond___118:752:1151:1464| Int)
(declare-const __VERIFIER_assert__cond___89 Int)
(declare-const |phi___VERIFIER_assert__cond___94:814:1097:1410| Int)
(declare-const |phi___VERIFIER_assert__cond___50:890:1024:1337| Int)
(declare-const __VERIFIER_assert__cond___16 Int)
(declare-const __VERIFIER_assert__cond___130 Int)
(declare-const |phi___VERIFIER_assert__cond___149:721:1182:1495| Int)
(declare-const |main__j':617:625:628:1270:1583| Int)
(declare-const |phi___VERIFIER_assert__cond___123:747:1156:1469| Int)
(declare-const |phi___VERIFIER_assert__cond___141:729:1174:1487| Int)
(declare-const __VERIFIER_assert__cond___15 Int)
(declare-const |phi___VERIFIER_assert__cond___129:741:1162:1475| Int)
(declare-const |phi___VERIFIER_assert__cond___15:957:960:1273| Int)
(declare-const __VERIFIER_assert__cond___88 Int)
(declare-const __VERIFIER_assert__cond___55 Int)
(declare-const |phi___VERIFIER_assert__cond___55:885:1029:1342| Int)
(declare-const __VERIFIER_assert__cond___50 Int)
(declare-const __VERIFIER_assert__cond___57 Int)
(declare-const |phi_main__j:958:959:1272| Int)
(declare-const |phi___VERIFIER_assert__cond___86:822:1089:1402| Int)
(declare-const __VERIFIER_assert__cond___86 Int)
(declare-const |phi_main__i:755:1148:1461| Int)
(assert (and (< (- havoc) 0) (not (= (ite (<= (+ (- havoc) 1) 0) 1 0) 0))
               (not (= (ite (<= (+ (- havoc) 1) 0) 1 0) 0))
               (not (= (ite (<= (+ (- havoc) 1) 0) 1 0) 0))
               (not (= (ite (<= (+ (- havoc) 1) 0) 1 0) 0))
               (not (= (ite (<= (+ (- havoc) 1) 0) 1 0) 0))
               (not (= (ite (<= (+ (- havoc) 1) 0) 1 0) 0))
               (not (= (ite (<= (+ (- havoc) 1) 0) 1 0) 0))
               (not (= (ite (<= (+ (- havoc) 1) 0) 1 0) 0))
               (= (+ (- |phi_main__j:958:959:1272|) 8) 0)
               (= (+ (- |phi___VERIFIER_assert__cond___15:957:960:1273|)
                       __VERIFIER_assert__cond___15) 0)
               (= (+ (- |phi___VERIFIER_assert__cond___16:956:961:1274|)
                       __VERIFIER_assert__cond___16) 0)
               (= (+ (- |phi___VERIFIER_assert__cond___17:955:962:1275|)
                       __VERIFIER_assert__cond___17) 0)
               (= (+ (- |phi___VERIFIER_assert__cond___18:954:963:1276|)
                       __VERIFIER_assert__cond___18) 0)
               (= (+ (- |phi___VERIFIER_assert__cond___19:953:964:1277|)
                       __VERIFIER_assert__cond___19) 0)
               (= (+ (- |phi___VERIFIER_assert__cond___20:952:965:1278|)
                       __VERIFIER_assert__cond___20) 0)
               (= (+ (- |phi___VERIFIER_assert__cond___21:951:966:1279|)
                       __VERIFIER_assert__cond___21) 0)
               (= (+ (- |phi___VERIFIER_assert__cond___22:950:967:1280|)
                       __VERIFIER_assert__cond___22) 0)
               (= (+ (- |phi___VERIFIER_assert__cond___23:949:968:1281|)
                       __VERIFIER_assert__cond___23) 0)
               (= (+ (- |phi___VERIFIER_assert__cond___24:948:969:1282|)
                       __VERIFIER_assert__cond___24) 0)
               (= (+ (- |phi___VERIFIER_assert__cond___25:947:970:1283|)
                       __VERIFIER_assert__cond___25) 0)
               (= (+ (- |phi___VERIFIER_assert__cond___26:946:971:1284|)
                       __VERIFIER_assert__cond___26) 0)
               (= (+ (- |phi___VERIFIER_assert__cond___27:945:972:1285|)
                       __VERIFIER_assert__cond___27) 0)
               (= (+ (- |phi___VERIFIER_assert__cond___28:944:973:1286|)
                       __VERIFIER_assert__cond___28) 0) (< (+ (- havoc) 1) 0)
               (not (= (ite (<= (+ (- havoc) 2) 0) 1 0) 0))
               (not (= (ite (<= (+ (- havoc) 2) 0) 1 0) 0))
               (not (= (ite (<= (+ (- havoc) 2) 0) 1 0) 0))
               (not (= (ite (<= (+ (- havoc) 2) 0) 1 0) 0))
               (not (= (ite (<= (+ (- havoc) 2) 0) 1 0) 0))
               (not (= (ite (<= (+ (- havoc) 2) 0) 1 0) 0))
               (not (= (ite (<= (+ (- havoc) 2) 0) 1 0) 0))
               (not (= (ite (<= (+ (- havoc) 2) 0) 1 0) 0))
               (= (+ (- |phi_main__j:892:1022:1335|) 8) 0)
               (= (+ (- |phi___VERIFIER_assert__cond___49:891:1023:1336|)
                       __VERIFIER_assert__cond___49) 0)
               (= (+ (- |phi___VERIFIER_assert__cond___50:890:1024:1337|)
                       __VERIFIER_assert__cond___50) 0)
               (= (+ (- |phi___VERIFIER_assert__cond___51:889:1025:1338|)
                       __VERIFIER_assert__cond___51) 0)
               (= (+ (- |phi___VERIFIER_assert__cond___52:888:1026:1339|)
                       __VERIFIER_assert__cond___52) 0)
               (= (+ (- |phi___VERIFIER_assert__cond___53:887:1027:1340|)
                       __VERIFIER_assert__cond___53) 0)
               (= (+ (- |phi___VERIFIER_assert__cond___54:886:1028:1341|)
                       __VERIFIER_assert__cond___54) 0)
               (= (+ (- |phi___VERIFIER_assert__cond___55:885:1029:1342|)
                       __VERIFIER_assert__cond___55) 0)
               (= (+ (- |phi___VERIFIER_assert__cond___56:884:1030:1343|)
                       __VERIFIER_assert__cond___56) 0)
               (= (+ (- |phi___VERIFIER_assert__cond___57:883:1031:1344|)
                       __VERIFIER_assert__cond___57) 0)
               (= (+ (- |phi___VERIFIER_assert__cond___58:882:1032:1345|)
                       __VERIFIER_assert__cond___58) 0)
               (= (+ (- |phi___VERIFIER_assert__cond___59:881:1033:1346|)
                       __VERIFIER_assert__cond___59) 0)
               (= (+ (- |phi___VERIFIER_assert__cond___60:880:1034:1347|)
                       __VERIFIER_assert__cond___60) 0)
               (= (+ (- |phi___VERIFIER_assert__cond___61:879:1035:1348|)
                       __VERIFIER_assert__cond___61) 0)
               (= (+ (- |phi___VERIFIER_assert__cond___62:878:1036:1349|)
                       __VERIFIER_assert__cond___62) 0) (< (+ (- havoc) 2) 0)
               (not (= (ite (<= (+ (- havoc) 3) 0) 1 0) 0))
               (not (= (ite (<= (+ (- havoc) 3) 0) 1 0) 0))
               (not (= (ite (<= (+ (- havoc) 3) 0) 1 0) 0))
               (not (= (ite (<= (+ (- havoc) 3) 0) 1 0) 0))
               (not (= (ite (<= (+ (- havoc) 3) 0) 1 0) 0))
               (not (= (ite (<= (+ (- havoc) 3) 0) 1 0) 0))
               (not (= (ite (<= (+ (- havoc) 3) 0) 1 0) 0))
               (not (= (ite (<= (+ (- havoc) 3) 0) 1 0) 0))
               (= (+ (- |phi_main__j:826:1085:1398|) 8) 0)
               (= (+ (- |phi___VERIFIER_assert__cond___83:825:1086:1399|)
                       __VERIFIER_assert__cond___83) 0)
               (= (+ (- |phi___VERIFIER_assert__cond___84:824:1087:1400|)
                       __VERIFIER_assert__cond___84) 0)
               (= (+ (- |phi___VERIFIER_assert__cond___85:823:1088:1401|)
                       __VERIFIER_assert__cond___85) 0)
               (= (+ (- |phi___VERIFIER_assert__cond___86:822:1089:1402|)
                       __VERIFIER_assert__cond___86) 0)
               (= (+ (- |phi___VERIFIER_assert__cond___87:821:1090:1403|)
                       __VERIFIER_assert__cond___87) 0)
               (= (+ (- |phi___VERIFIER_assert__cond___88:820:1091:1404|)
                       __VERIFIER_assert__cond___88) 0)
               (= (+ (- |phi___VERIFIER_assert__cond___89:819:1092:1405|)
                       __VERIFIER_assert__cond___89) 0)
               (= (+ (- |phi___VERIFIER_assert__cond___90:818:1093:1406|)
                       __VERIFIER_assert__cond___90) 0)
               (= (+ (- |phi___VERIFIER_assert__cond___91:817:1094:1407|)
                       __VERIFIER_assert__cond___91) 0)
               (= (+ (- |phi___VERIFIER_assert__cond___92:816:1095:1408|)
                       __VERIFIER_assert__cond___92) 0)
               (= (+ (- |phi___VERIFIER_assert__cond___93:815:1096:1409|)
                       __VERIFIER_assert__cond___93) 0)
               (= (+ (- |phi___VERIFIER_assert__cond___94:814:1097:1410|)
                       __VERIFIER_assert__cond___94) 0)
               (= (+ (- |phi___VERIFIER_assert__cond___95:813:1098:1411|)
                       __VERIFIER_assert__cond___95) 0)
               (= (+ (- |phi___VERIFIER_assert__cond___96:812:1099:1412|)
                       __VERIFIER_assert__cond___96) 0) (< (+ (- havoc) 3) 0)
               (not (= (ite (<= (+ (- havoc) 4) 0) 1 0) 0))
               (not (= (ite (<= (+ (- havoc) 4) 0) 1 0) 0))
               (not (= (ite (<= (+ (- havoc) 4) 0) 1 0) 0))
               (not (= (ite (<= (+ (- havoc) 4) 0) 1 0) 0))
               (not (= (ite (<= (+ (- havoc) 4) 0) 1 0) 0))
               (not (= (ite (<= (+ (- havoc) 4) 0) 1 0) 0))
               (not (= (ite (<= (+ (- havoc) 4) 0) 1 0) 0))
               (not (= (ite (<= (+ (- havoc) 4) 0) 1 0) 0))
               (= (+ (- |phi_main__j:719:1184:1497|) 8) 0)
               (= (+ (- |phi___VERIFIER_assert__cond___117:718:1185:1498|)
                       __VERIFIER_assert__cond___117) 0)
               (= (+ (- |phi___VERIFIER_assert__cond___118:717:1186:1499|)
                       __VERIFIER_assert__cond___118) 0)
               (= (+ (- |phi___VERIFIER_assert__cond___119:716:1187:1500|)
                       __VERIFIER_assert__cond___119) 0)
               (= (+ (- |phi___VERIFIER_assert__cond___120:715:1188:1501|)
                       __VERIFIER_assert__cond___120) 0)
               (= (+ (- |phi___VERIFIER_assert__cond___121:714:1189:1502|)
                       __VERIFIER_assert__cond___121) 0)
               (= (+ (- |phi___VERIFIER_assert__cond___122:713:1190:1503|)
                       __VERIFIER_assert__cond___122) 0)
               (= (+ (- |phi___VERIFIER_assert__cond___123:712:1191:1504|)
                       __VERIFIER_assert__cond___123) 0)
               (= (+ (- |phi___VERIFIER_assert__cond___124:711:1192:1505|)
                       __VERIFIER_assert__cond___124) 0)
               (= (+ (- |phi___VERIFIER_assert__cond___125:710:1193:1506|)
                       __VERIFIER_assert__cond___125) 0)
               (= (+ (- |phi___VERIFIER_assert__cond___126:709:1194:1507|)
                       __VERIFIER_assert__cond___126) 0)
               (= (+ (- |phi___VERIFIER_assert__cond___127:708:1195:1508|)
                       __VERIFIER_assert__cond___127) 0)
               (= (+ (- |phi___VERIFIER_assert__cond___128:707:1196:1509|)
                       __VERIFIER_assert__cond___128) 0)
               (= (+ (- |phi___VERIFIER_assert__cond___129:706:1197:1510|)
                       __VERIFIER_assert__cond___129) 0)
               (= (+ (- |phi___VERIFIER_assert__cond___130:705:1198:1511|)
                       __VERIFIER_assert__cond___130) 0)
               (= (+ (- |phi___VERIFIER_assert__cond___131:704:1199:1512|)
                       __VERIFIER_assert__cond___131) 0)
               (= (+ (- |phi___VERIFIER_assert__cond___132:703:1200:1513|)
                       __VERIFIER_assert__cond___132) 0)
               (< (+ (- havoc) 4) 0)
               (not (= (ite (<= (+ (- havoc) 5) 0) 1 0) 0))
               (not (= (ite (<= (+ (- havoc) 5) 0) 1 0) 0))
               (not (= (ite (<= (+ (- havoc) 5) 0) 1 0) 0))
               (not (= (ite (<= (+ (- havoc) 5) 0) 1 0) 0))
               (not (= (ite (<= (+ (- havoc) 5) 0) 1 0) 0))
               (not (= (ite (<= (+ (- havoc) 5) 0) 1 0) 0))
               (not (= (ite (<= (+ (- havoc) 5) 0) 1 0) 0))
               (not (= (ite (<= (+ (- havoc) 5) 0) 1 0) 0))
               (= (+ (- |phi_main__i:755:1148:1461|) 4) 0)
               (= (+ (- |phi_main__j:754:1149:1462|) 7) 0)
               (= (+ |phi___VERIFIER_assert__cond___117:718:1185:1498|
                       (- |phi___VERIFIER_assert__cond___117:753:1150:1463|)) 0)
               (= (+ |phi___VERIFIER_assert__cond___118:717:1186:1499|
                       (- |phi___VERIFIER_assert__cond___118:752:1151:1464|)) 0)
               (= (+ |phi___VERIFIER_assert__cond___119:716:1187:1500|
                       (- |phi___VERIFIER_assert__cond___119:751:1152:1465|)) 0)
               (= (+ |phi___VERIFIER_assert__cond___120:715:1188:1501|
                       (- |phi___VERIFIER_assert__cond___120:750:1153:1466|)) 0)
               (= (+ |phi___VERIFIER_assert__cond___121:714:1189:1502|
                       (- |phi___VERIFIER_assert__cond___121:749:1154:1467|)) 0)
               (= (+ |phi___VERIFIER_assert__cond___122:713:1190:1503|
                       (- |phi___VERIFIER_assert__cond___122:748:1155:1468|)) 0)
               (= (+ |phi___VERIFIER_assert__cond___123:712:1191:1504|
                       (- |phi___VERIFIER_assert__cond___123:747:1156:1469|)) 0)
               (= (+ |phi___VERIFIER_assert__cond___124:711:1192:1505|
                       (- |phi___VERIFIER_assert__cond___124:746:1157:1470|)) 0)
               (= (+ |phi___VERIFIER_assert__cond___125:710:1193:1506|
                       (- |phi___VERIFIER_assert__cond___125:745:1158:1471|)) 0)
               (= (+ |phi___VERIFIER_assert__cond___126:709:1194:1507|
                       (- |phi___VERIFIER_assert__cond___126:744:1159:1472|)) 0)
               (= (+ |phi___VERIFIER_assert__cond___127:708:1195:1508|
                       (- |phi___VERIFIER_assert__cond___127:743:1160:1473|)) 0)
               (= (+ |phi___VERIFIER_assert__cond___128:707:1196:1509|
                       (- |phi___VERIFIER_assert__cond___128:742:1161:1474|)) 0)
               (= (+ |phi___VERIFIER_assert__cond___129:706:1197:1510|
                       (- |phi___VERIFIER_assert__cond___129:741:1162:1475|)) 0)
               (= (+ |phi___VERIFIER_assert__cond___130:705:1198:1511|
                       (- |phi___VERIFIER_assert__cond___130:740:1163:1476|)) 0)
               (= (+ |phi___VERIFIER_assert__cond___131:704:1199:1512|
                       (- |phi___VERIFIER_assert__cond___131:739:1164:1477|)) 0)
               (= (+ |phi___VERIFIER_assert__cond___132:703:1200:1513|
                       (- |phi___VERIFIER_assert__cond___132:738:1165:1478|)) 0)
               (= (+ __VERIFIER_assert__cond___133
                       (- |phi___VERIFIER_assert__cond___133:737:1166:1479|)) 0)
               (= (+ __VERIFIER_assert__cond___134
                       (- |phi___VERIFIER_assert__cond___134:736:1167:1480|)) 0)
               (= (+ (ite (<= (+ (- havoc) 5) 0) 1 0)
                       (- |phi___VERIFIER_assert__cond___135:735:1168:1481|)) 0)
               (= (+ (- |phi___VERIFIER_assert__cond___136:734:1169:1482|) 1) 0)
               (= (+ (ite (<= (+ (- havoc) 5) 0) 1 0)
                       (- |phi___VERIFIER_assert__cond___137:733:1170:1483|)) 0)
               (= (+ (- |phi___VERIFIER_assert__cond___138:732:1171:1484|) 1) 0)
               (= (+ (ite (<= (+ (- havoc) 5) 0) 1 0)
                       (- |phi___VERIFIER_assert__cond___139:731:1172:1485|)) 0)
               (= (+ (- |phi___VERIFIER_assert__cond___140:730:1173:1486|) 1) 0)
               (= (+ (ite (<= (+ (- havoc) 5) 0) 1 0)
                       (- |phi___VERIFIER_assert__cond___141:729:1174:1487|)) 0)
               (= (+ (- |phi___VERIFIER_assert__cond___142:728:1175:1488|) 1) 0)
               (= (+ (ite (<= (+ (- havoc) 5) 0) 1 0)
                       (- |phi___VERIFIER_assert__cond___143:727:1176:1489|)) 0)
               (= (+ (- |phi___VERIFIER_assert__cond___144:726:1177:1490|) 1) 0)
               (= (+ (ite (<= (+ (- havoc) 5) 0) 1 0)
                       (- |phi___VERIFIER_assert__cond___145:725:1178:1491|)) 0)
               (= (+ (- |phi___VERIFIER_assert__cond___146:724:1179:1492|) 1) 0)
               (= (+ (ite (<= (+ (- havoc) 5) 0) 1 0)
                       (- |phi___VERIFIER_assert__cond___147:723:1180:1493|)) 0)
               (= (+ (- |phi___VERIFIER_assert__cond___148:722:1181:1494|) 1) 0)
               (= (+ (ite (<= (+ (- havoc) 5) 0) 1 0)
                       (- |phi___VERIFIER_assert__cond___149:721:1182:1495|)) 0)
               (= (+ (- |phi___VERIFIER_assert__cond___150:720:1183:1496|) 1) 0)
               (or (not (and (<= (- |K:639:756:1264:1577|) 0)
                               (<= |K:639:756:1264:1577| 0)))
                     (= (+ (- __VERIFIER_assert__cond___151)
                             |__VERIFIER_assert__cond___151':631:757:1265:1578|) 0))
               (or (not (<= (+ (- |K:639:756:1264:1577|) 1) 0))
                     (= (+ |__VERIFIER_assert__cond___151':631:757:1265:1578|
                             -1) 0))
               (or (not (and (<= (- |K:639:756:1264:1577|) 0)
                               (<= |K:639:756:1264:1577| 0)))
                     (= (+ |__VERIFIER_assert__cond___134':630:758:1266:1579|
                             (- |phi___VERIFIER_assert__cond___134:736:1167:1480|)) 0))
               (or (not (<= (+ (- |K:639:756:1264:1577|) 1) 0))
                     (= (+ |__VERIFIER_assert__cond___134':630:758:1266:1579|
                             -1) 0))
               (or (not (<= (- |K:639:756:1264:1577|) 0))
                     (<= (+ (* 8 |main__i':616:760:1268:1581|)
                              |main__j':617:759:1267:1580|
                              (- |K:639:756:1264:1577|)
                              (- |phi_main__j:754:1149:1462|)
                              (* -8 |phi_main__i:755:1148:1461|)) 0))
               (or (not (<= (- |K:639:756:1264:1577|) 0))
                     (<= (+ |main__i':616:760:1268:1581|
                              (* 2 |K:639:756:1264:1577|)
                              (- |phi_main__i:755:1148:1461|)
                              (- (* |K:639:756:1264:1577| havoc))) 0))
               (or (not (<= (- |K:639:756:1264:1577|) 0))
                     (<= (+ (- |main__i':616:760:1268:1581|)
                              |phi_main__i:755:1148:1461|) 0))
               (or (and (= |K:639:756:1264:1577| 0)
                          (= (+ __VERIFIER_assert__cond___151
                                  (- |__VERIFIER_assert__cond___151':631:757:1265:1578|)) 0)
                          (= (+ (- |__VERIFIER_assert__cond___134':630:758:1266:1579|)
                                  |phi___VERIFIER_assert__cond___134:736:1167:1480|) 0)
                          (= (+ (- |main__j':617:759:1267:1580|)
                                  |phi_main__j:754:1149:1462|) 0)
                          (= (+ (- |main__i':616:760:1268:1581|)
                                  |phi_main__i:755:1148:1461|) 0))
                     (and (<= (+ (- |K:639:756:1264:1577|) 1) 0)
                            (<= (+ |phi_main__i:755:1148:1461| (- havoc) 1) 0)
                            (<= (- |phi_main__j:754:1149:1462|) 0)
                            (<= (+ (- |phi_main__i:755:1148:1461|) 1) 0)
                            (= (+ |__VERIFIER_assert__cond___134':630:758:1266:1579|
                                    -1) 0)
                            (= (+ |__VERIFIER_assert__cond___151':631:757:1265:1578|
                                    -1) 0)
                            (<= (+ |main__i':616:760:1268:1581| (- havoc) 1) 0)
                            (<= (+ |main__j':617:759:1267:1580| -7) 0)
                            (<= (- |main__j':617:759:1267:1580|) 0)
                            (<= (+ (- |main__i':616:760:1268:1581|) 1) 0)
                            (<= (+ (- |main__i':616:760:1268:1581|)
                                     (- |main__j':617:759:1267:1580|) 2) 0)))
               (<= (- |K:639:756:1264:1577|) 0)
               (<= (- |main__j':617:759:1267:1580|) 0) (< (- havoc) 0)
               (< (- |main__i':616:760:1268:1581|) 0)
               (or (not (and (<= (- |K:623:624:627:1269:1582|) 0)
                               (<= |K:623:624:627:1269:1582| 0)))
                     (= (+ |main__j':617:625:628:1270:1583|
                             (- |main__j':617:759:1267:1580|) -1) 0))
               (or (not (<= (+ (- |K:623:624:627:1269:1582|) 1) 0))
                     (= |main__j':617:625:628:1270:1583| 0))
               (or (not (<= (- |K:623:624:627:1269:1582|) 0))
                     (= (+ |main__i':616:626:629:1271:1584|
                             (- |K:623:624:627:1269:1582|)
                             (- |main__i':616:760:1268:1581|)) 0))
               (or (not (<= (- |K:623:624:627:1269:1582|) 0))
                     (<= (+ |main__j':617:625:628:1270:1583|
                              (* 8 |K:623:624:627:1269:1582|)
                              (- |main__j':617:759:1267:1580|) -1) 0))
               (or (and (= |K:623:624:627:1269:1582| 0)
                          (= (+ (- |main__j':617:625:628:1270:1583|)
                                  |main__j':617:759:1267:1580| 1) 0)
                          (= (+ (- |main__i':616:626:629:1271:1584|)
                                  |main__i':616:760:1268:1581|) 0))
                     (and (<= (+ (- |K:623:624:627:1269:1582|) 1) 0)
                            (<= (+ |main__i':616:760:1268:1581| (- havoc) 2) 0)
                            (<= (+ (- |main__j':617:759:1267:1580|) 7) 0)
                            (<= (+ (- |main__i':616:760:1268:1581|) 1) 0)
                            (= |main__j':617:625:628:1270:1583| 0)
                            (<= (+ |main__i':616:626:629:1271:1584| (- 
                                     havoc) 1) 0)
                            (<= (+ (- |main__i':616:626:629:1271:1584|) 2) 0)))
               (<= (- |K:623:624:627:1269:1582|) 0)
               (<= (- |main__j':617:625:628:1270:1583|) 0) (< (- havoc) 0)
               (< (- |main__i':616:626:629:1271:1584|) 0)
               (< (+ |main__j':617:625:628:1270:1583| -8) 0)
               (= (ite (<= (+ |main__i':616:626:629:1271:1584| (- havoc) 1) 0)
                       1 0) 0)))
(check-sat)
